set VV := 0 1 2 3 4 5 6 7 8 9 10 11 12 13 14 15 16 17 ;
set VS := 0 1 2 3 4 5 6 7 8 9 10 11 12 13 14 15 16 17 18 19 20 21 22 23 24 25 26 27 28 29 30 31 32 33 34 35 36 37 38 39 40 ;
param cv := 
0 15
1 19
2 25
3 12
4 16
5 13
6 10
7 17
8 15
9 13
10 18
11 10
12 22
13 11
14 20
15 19
16 14
17 17
;
param cs := 
0 22
1 35
2 31
3 27
4 40
5 38
6 34
7 30
8 24
9 40
10 39
11 29
12 39
13 40
14 28
15 36
16 22
17 30
18 20
19 37
20 20
21 22
22 20
23 26
24 31
25 34
26 35
27 38
28 39
29 20
30 35
31 26
32 22
33 21
34 39
35 40
36 26
37 21
38 30
39 21
40 31
;
param bv:	 0 1 2 3 4 5 6 7 8 9 10 11 12 13 14 15 16 17 := 
		0 0 20 0 0 14 11 0 10 0 10 0 0 0 0 0 0 0 16 
		1 0 0 0 0 0 0 0 0 0 0 0 0 22 0 0 0 0 0 
		2 0 0 0 0 0 0 0 0 0 0 0 23 0 20 0 21 0 0 
		3 0 0 0 0 0 0 0 0 0 0 0 0 0 0 12 10 0 17 
		4 0 0 0 0 0 0 0 0 0 0 0 13 0 0 0 0 0 0 
		5 0 0 0 0 0 0 0 0 0 0 0 25 0 0 18 0 17 0 
		6 0 0 0 0 0 0 0 0 12 0 0 0 0 13 0 0 0 0 
		7 0 0 0 0 0 0 0 0 0 0 0 0 0 0 0 0 20 0 
		8 0 0 0 0 0 0 0 0 0 0 0 0 22 0 0 0 0 0 
		9 0 0 0 0 0 0 0 0 0 0 0 0 15 0 0 0 0 0 
		10 0 0 0 0 0 0 0 0 0 0 0 17 0 0 10 0 0 0 
		11 0 0 0 0 0 0 0 0 0 0 0 0 0 0 0 0 0 0 
		12 0 0 0 0 0 0 0 0 0 0 0 0 0 0 0 0 12 0 
		13 0 0 0 0 0 0 0 0 0 0 0 0 0 0 0 0 0 0 
		14 0 0 0 0 0 0 0 0 0 0 0 0 0 0 0 0 0 0 
		15 0 0 0 0 0 0 0 0 0 0 0 0 0 0 0 0 0 0 
		16 0 0 0 0 0 0 0 0 0 0 0 0 0 0 0 0 0 0 
		17 0 0 0 0 0 0 0 0 0 0 0 0 0 0 0 0 0 0 
;
param bs:	 0 1 2 3 4 5 6 7 8 9 10 11 12 13 14 15 16 17 18 19 20 21 22 23 24 25 26 27 28 29 30 31 32 33 34 35 36 37 38 39 40 := 
		0 0 0 0 0 0 0 0 33 0 0 38 0 0 0 26 0 0 0 30 0 0 38 0 32 0 37 0 0 0 0 0 0 0 35 0 0 25 0 0 0 0 
		1 0 0 37 0 0 0 23 0 32 0 0 34 0 0 0 0 0 0 0 0 0 0 0 0 0 0 0 30 0 0 0 0 0 0 0 0 0 0 0 0 28 
		2 0 37 0 0 0 0 0 0 0 0 0 0 0 0 0 0 0 0 0 33 0 31 0 0 0 0 0 0 40 0 0 0 0 0 0 0 0 0 0 0 0 
		3 0 0 0 0 0 0 0 0 0 0 0 0 0 0 0 0 0 0 0 0 0 0 37 0 0 0 0 0 0 0 0 0 0 0 0 0 0 35 0 0 0 
		4 0 0 0 0 0 0 0 33 0 0 0 0 0 0 0 0 0 0 0 0 25 0 0 35 0 40 0 0 0 0 38 0 0 0 0 0 40 0 0 0 0 
		5 0 0 0 0 0 0 0 0 0 0 0 0 0 0 0 0 0 35 0 0 0 0 0 24 0 0 31 0 0 0 0 33 0 0 0 0 0 0 0 0 0 
		6 0 23 0 0 0 0 0 0 0 37 0 0 0 0 0 39 0 0 0 0 0 0 0 0 0 0 0 0 0 0 39 0 0 0 0 0 0 0 0 0 0 
		7 33 0 0 0 33 0 0 0 0 0 0 0 0 0 0 0 26 31 0 0 0 0 0 23 0 23 0 0 0 0 0 0 0 0 0 0 0 0 0 0 25 
		8 0 32 0 0 0 0 0 0 0 0 0 0 0 0 0 0 0 0 0 0 0 0 0 0 0 0 0 0 0 0 0 0 0 0 0 0 0 28 0 0 0 
		9 0 0 0 0 0 0 37 0 0 0 0 0 39 0 0 0 0 0 0 0 0 0 0 0 0 0 0 39 0 0 0 0 0 0 0 0 0 0 0 0 0 
		10 38 0 0 0 0 0 0 0 0 0 0 0 0 39 0 39 0 0 0 0 0 0 0 0 0 0 0 0 0 0 0 0 0 36 0 0 0 0 0 36 0 
		11 0 34 0 0 0 0 0 0 0 0 0 0 0 0 0 0 0 0 0 0 0 0 0 0 0 0 0 25 0 0 0 0 0 0 0 0 0 0 0 0 0 
		12 0 0 0 0 0 0 0 0 0 39 0 0 0 20 0 0 0 0 0 0 0 0 0 0 0 0 0 0 0 0 0 0 22 0 24 0 0 30 0 0 36 
		13 0 0 0 0 0 0 0 0 0 0 39 0 20 0 0 0 0 0 0 0 0 0 0 0 0 0 0 0 0 0 0 0 0 0 0 0 0 0 0 0 21 
		14 26 0 0 0 0 0 0 0 0 0 0 0 0 0 0 0 0 0 0 24 0 25 0 26 25 0 0 0 0 0 0 0 0 0 22 0 37 0 0 0 0 
		15 0 0 0 0 0 0 39 0 0 0 39 0 0 0 0 0 0 0 0 0 0 0 0 0 0 0 0 0 0 0 0 0 0 0 0 0 0 0 0 0 0 
		16 0 0 0 0 0 0 0 26 0 0 0 0 0 0 0 0 0 0 0 0 0 0 0 0 0 0 0 0 0 0 0 0 0 0 22 0 0 0 0 33 31 
		17 0 0 0 0 0 35 0 31 0 0 0 0 0 0 0 0 0 0 0 0 0 0 0 0 0 0 0 0 0 0 0 0 0 35 0 0 0 0 0 0 24 
		18 30 0 0 0 0 0 0 0 0 0 0 0 0 0 0 0 0 0 0 0 0 0 0 0 0 0 0 0 40 0 0 0 0 0 0 0 0 0 0 0 0 
		19 0 0 33 0 0 0 0 0 0 0 0 0 0 0 24 0 0 0 0 0 0 21 24 0 0 0 32 0 0 0 0 0 0 0 0 0 0 0 0 35 0 
		20 0 0 0 0 25 0 0 0 0 0 0 0 0 0 0 0 0 0 0 0 0 0 0 0 0 0 0 0 0 0 0 0 0 39 0 0 0 0 32 0 0 
		21 38 0 31 0 0 0 0 0 0 0 0 0 0 0 25 0 0 0 0 21 0 0 0 0 0 0 0 0 0 0 0 0 0 0 0 36 0 0 0 0 0 
		22 0 0 0 37 0 0 0 0 0 0 0 0 0 0 0 0 0 0 0 24 0 0 0 37 0 0 0 0 0 0 0 0 0 0 0 28 0 0 0 0 0 
		23 32 0 0 0 35 24 0 23 0 0 0 0 0 0 26 0 0 0 0 0 0 0 37 0 0 0 0 0 0 0 35 0 0 0 32 0 20 26 0 0 0 
		24 0 0 0 0 0 0 0 0 0 0 0 0 0 0 25 0 0 0 0 0 0 0 0 0 0 0 0 32 0 0 0 0 0 0 0 0 0 0 0 0 0 
		25 37 0 0 0 40 0 0 23 0 0 0 0 0 0 0 0 0 0 0 0 0 0 0 0 0 0 0 0 34 0 0 0 0 0 0 0 21 31 0 0 0 
		26 0 0 0 0 0 31 0 0 0 0 0 0 0 0 0 0 0 0 0 32 0 0 0 0 0 0 0 0 25 0 0 0 0 0 26 0 0 29 0 0 0 
		27 0 30 0 0 0 0 0 0 0 39 0 25 0 0 0 0 0 0 0 0 0 0 0 0 32 0 0 0 22 0 0 0 0 0 0 0 0 0 0 0 0 
		28 0 0 40 0 0 0 0 0 0 0 0 0 0 0 0 0 0 0 40 0 0 0 0 0 0 34 25 22 0 37 0 0 0 0 0 0 0 0 0 0 22 
		29 0 0 0 0 0 0 0 0 0 0 0 0 0 0 0 0 0 0 0 0 0 0 0 0 0 0 0 0 37 0 0 0 0 0 0 0 0 0 0 0 0 
		30 0 0 0 0 38 0 39 0 0 0 0 0 0 0 0 0 0 0 0 0 0 0 0 35 0 0 0 0 0 0 0 0 0 0 0 0 0 0 0 0 0 
		31 0 0 0 0 0 33 0 0 0 0 0 0 0 0 0 0 0 0 0 0 0 0 0 0 0 0 0 0 0 0 0 0 0 0 0 0 0 0 0 22 0 
		32 0 0 0 0 0 0 0 0 0 0 0 0 22 0 0 0 0 0 0 0 0 0 0 0 0 0 0 0 0 0 0 0 0 0 0 0 0 0 0 0 0 
		33 35 0 0 0 0 0 0 0 0 0 36 0 0 0 0 0 0 35 0 0 39 0 0 0 0 0 0 0 0 0 0 0 0 0 29 0 0 0 0 0 36 
		34 0 0 0 0 0 0 0 0 0 0 0 0 24 0 22 0 22 0 0 0 0 0 0 32 0 0 26 0 0 0 0 0 0 29 0 0 0 0 0 0 40 
		35 0 0 0 0 0 0 0 0 0 0 0 0 0 0 0 0 0 0 0 0 0 36 28 0 0 0 0 0 0 0 0 0 0 0 0 0 24 0 0 0 0 
		36 25 0 0 0 40 0 0 0 0 0 0 0 0 0 37 0 0 0 0 0 0 0 0 20 0 21 0 0 0 0 0 0 0 0 0 24 0 0 0 0 0 
		37 0 0 0 35 0 0 0 0 28 0 0 0 30 0 0 0 0 0 0 0 0 0 0 26 0 31 29 0 0 0 0 0 0 0 0 0 0 0 0 0 0 
		38 0 0 0 0 0 0 0 0 0 0 0 0 0 0 0 0 0 0 0 0 32 0 0 0 0 0 0 0 0 0 0 0 0 0 0 0 0 0 0 0 0 
		39 0 0 0 0 0 0 0 0 0 0 36 0 0 0 0 0 33 0 0 35 0 0 0 0 0 0 0 0 0 0 0 22 0 0 0 0 0 0 0 0 0 
		40 0 28 0 0 0 0 0 25 0 0 0 0 36 21 0 0 31 24 0 0 0 0 0 0 0 0 0 0 22 0 0 0 0 36 40 0 0 0 0 0 0 
;
